db/data/6722265548474251571368318397118463135.z3.out
-------------------
2500.123703995
